SCIP version 5.0.0 [precision: 8 byte] [memory: block] [mode: optimized] [LP solver: NONE] [GitHash: 3bbd232]
Copyright (C) 2002-2017 Konrad-Zuse-Zentrum fuer Informationstechnik Berlin (ZIB)

External codes: 
  Readline EditLine w  GNU library for command line editing (gnu.org/s/readline)
  CppAD 20160000.1     Algorithmic Differentiation of C++ algorithms developed by B. Bell (www.coin-or.org/CppAD)
  ZLIB 1.2.5           General purpose compression library by J. Gailly and M. Adler (zlib.net)
  GMP 6.1.2            GNU Multiple Precision Arithmetic Library developed by T. Granlund (gmplib.org)

user parameter file <scip.set> not found - using default parameters

read problem <../../Split_data/output/biodeg/2/1_sample_biodeg.logreg>
============

File name	:	../../Split_data/output/biodeg/2/1_sample_biodeg.logreg
Problem name 	:	1_sample_biodeg
Number of data	:	844
Number of var	:	41
The given data has linear dependence
1 sets of column vector are linearly dependent:
{ 19}, 

[dim=1] time: 0.04131
[dim=2] time: 0.083774
[dim=3] time: 0.135563
[dim=4] time: 0.180352
[dim=5] time: 0.21844
[dim=6] time: 0.248233
[dim=7] time: 0.276921
[dim=8] time: 0.307862
[dim=9] time: 0.333686
[dim=10] time: 0.359174
[dim=11] time: 0.393944
[dim=12] time: 0.420623
[dim=13] time: 0.438741
[dim=14] time: 0.464561
[dim=15] time: 0.486177
[dim=16] time: 0.503823
[dim=17] time: 0.520866
[dim=18] time: 0.542431
[dim=19] time: 0.568812
[dim=20] time: 0.607756
[dim=21] time: 0.623697
[dim=22] time: 0.639815
[dim=23] time: 0.655788
[dim=24] Time of forward = 0.670036sec.
AIC: 555.842
k: 23

[dim=40] time: 0.151078
[dim=39] time: 0.217463
[dim=38] time: 0.261084
[dim=37] time: 0.315407
[dim=36] time: 0.356132
[dim=35] time: 0.41206
[dim=34] time: 0.459904
[dim=33] time: 0.495926
[dim=32] time: 0.537502
[dim=31] time: 0.587551
[dim=30] time: 0.656446
[dim=29] time: 0.704312
[dim=28] time: 0.737611
[dim=27] time: 0.775032
[dim=26] time: 0.807017
[dim=25] time: 0.834792
[dim=24] time: 0.878129
[dim=23] time: 0.917306
[dim=22] Time of backward = 0.942584sec.
AIC: 553.252
k: 23
